s td 15 66 80
b 1 1 2 3 7 8 9 11 12 13 14 15 18 20 21 22 23 24 25 26 28 29 30 31 32 33 34 35 36 37 38 40 41 42 44 45 46 47 48 49 52 54 55 56 57 58 59 61 62 63 64 66 67 68 69 70 71 72 73 74 75 76 77 78 79 80
b 2 1 2 7 8 9 11 12 13 14 15 18 20 21 22 23 24 25 26 28 29 30 31 32 33 34 35 36 37 38 40 41 42 43 44 45 46 47 48 49 52 54 55 56 57 58 59 61 62 63 64 65 66 67 68 69 70 71 72 73 74 75 76 77 78 79 80
b 3 1 2 7 8 9 11 12 13 14 15 18 20 21 22 23 25 26 28 29 30 31 32 33 34 35 36 37 38 40 41 42 43 44 45 46 47 48 49 52 54 55 56 57 58 59 60 61 62 63 64 65 66 67 68 69 70 71 72 73 74 75 76 77 78 79 80
b 4 1 2 7 8 9 11 12 13 14 15 18 20 21 22 23 25 26 29 30 31 32 33 34 35 36 37 38 40 41 42 43 44 45 46 47 48 49 50 52 54 55 56 57 58 59 60 61 62 63 64 65 66 67 68 69 70 71 72 73 74 75 76 77 78 79 80
b 5 1 2 7 8 9 10 11 12 13 14 15 18 20 21 22 23 25 26 29 30 31 32 33 34 35 36 37 38 40 41 43 44 45 46 47 48 49 50 52 54 55 56 57 58 59 60 61 62 63 64 65 66 67 68 69 70 71 72 73 74 75 76 77 78 79 80
b 6 1 2 4 7 8 9 10 11 12 13 14 15 20 21 22 23 25 26 29 30 32 33 34 35 36 38 40 41 43 44 45 46 47 48 49 50 52 55 56 57 58 59 60 61 62 63 64 65 66 67 68 69 70 71 72 73 74 75 76 77 78 79 80
b 7 1 2 4 6 7 8 9 10 11 12 13 14 15 20 21 22 23 25 26 29 30 32 33 34 35 36 38 40 41 43 44 46 48 49 50 52 55 56 57 58 59 60 61 62 63 64 66 67 68 69 70 71 72 74 75 76 77 78 79 80
b 8 1 2 4 6 7 8 9 10 11 12 13 15 17 20 21 22 23 25 26 29 30 32 33 34 35 36 38 40 41 43 44 46 49 50 52 56 57 58 59 61 62 63 64 66 67 68 69 70 71 72 74 75 77 78 79 80
b 9 1 2 4 5 7 8 11 12 13 15 17 20 22 25 29 33 34 36 38 40 41 49 52 58 59 61 63 64 66 69 70 74 75 77 78 80
b 10 1 2 7 8 9 11 12 13 14 18 20 21 22 23 25 26 28 30 31 32 33 34 36 37 38 40 41 42 43 44 45 48 51 52 54 56 57 59 60 61 62 64 65 66 67 68 69 70 72 73 74 77 78 80
b 11 2 7 8 9 11 14 22 23 25 26 28 30 33 34 36 37 38 40 41 42 43 44 48 51 53 56 57 60 61 62 64 65 66 67 68 69 72 73 80
b 12 1 2 3 7 8 9 11 12 14 15 18 19 20 21 22 23 24 25 26 28 29 30 31 32 33 34 36 37 38 40 41 42 44 45 46 47 48 49 52 54 55 56 57 58 59 61 62 63 64 66 67 68 69 70 71 72 73 74 75 76 77 78 79 80
b 13 1 2 3 7 8 9 11 12 14 15 18 19 20 21 22 23 25 26 28 29 30 31 33 34 36 37 38 39 40 41 42 44 45 46 47 48 49 52 54 55 56 57 58 59 61 62 63 64 66 67 68 69 70 71 72 73 74 75 76 77 78 79 80
b 14 2 3 7 8 9 11 12 15 19 20 21 22 23 25 26 27 28 29 30 31 33 34 36 37 38 39 40 41 42 44 45 46 47 48 49 52 54 55 56 58 59 61 62 64 66 67 68 69 70 71 72 73 74 75 76 77 78 79 80
b 15 7 8 9 11 12 15 16 19 20 21 22 23 27 28 29 30 31 34 36 37 38 39 41 42 46 47 48 49 52 54 58 59 64 66 67 68 69 70 73 74 75 76 78 80
1 2
1 12
2 3
3 4
3 10
4 5
5 6
6 7
7 8
8 9
10 11
12 13
13 14
14 15
